50 1225
1 2 5
1 3 1
1 4 5
1 5 2
1 6 4
1 7 5
1 8 5
1 9 5
1 10 2
1 11 3
1 12 5
1 13 1
1 14 4
1 15 2
1 16 1
1 17 5
1 18 1
1 19 4
1 20 4
1 21 1
1 22 2
1 23 1
1 24 1
1 25 2
1 26 2
1 27 3
1 28 5
1 29 4
1 30 3
1 31 1
1 32 1
1 33 5
1 34 5
1 35 3
1 36 3
1 37 5
1 38 2
1 39 2
1 40 2
1 41 2
1 42 4
1 43 3
1 44 5
1 45 3
1 46 1
1 47 2
1 48 4
1 49 2
1 50 2
2 3 4
2 4 3
2 5 5
2 6 4
2 7 4
2 8 3
2 9 3
2 10 3
2 11 1
2 12 4
2 13 3
2 14 5
2 15 2
2 16 1
2 17 2
2 18 2
2 19 3
2 20 2
2 21 5
2 22 3
2 23 4
2 24 3
2 25 5
2 26 3
2 27 1
2 28 1
2 29 3
2 30 3
2 31 2
2 32 5
2 33 2
2 34 3
2 35 3
2 36 5
2 37 3
2 38 5
2 39 4
2 40 1
2 41 1
2 42 1
2 43 5
2 44 1
2 45 3
2 46 3
2 47 4
2 48 1
2 49 5
2 50 2
3 4 3
3 5 5
3 6 4
3 7 5
3 8 1
3 9 3
3 10 1
3 11 3
3 12 2
3 13 5
3 14 3
3 15 5
3 16 2
3 17 3
3 18 1
3 19 1
3 20 4
3 21 4
3 22 1
3 23 1
3 24 4
3 25 1
3 26 2
3 27 4
3 28 2
3 29 4
3 30 1
3 31 4
3 32 1
3 33 3
3 34 5
3 35 2
3 36 5
3 37 3
3 38 5
3 39 2
3 40 1
3 41 5
3 42 4
3 43 4
3 44 1
3 45 5
3 46 3
3 47 2
3 48 1
3 49 4
3 50 2
4 5 3
4 6 4
4 7 5
4 8 5
4 9 3
4 10 5
4 11 5
4 12 4
4 13 5
4 14 1
4 15 2
4 16 3
4 17 2
4 18 3
4 19 3
4 20 1
4 21 2
4 22 5
4 23 5
4 24 2
4 25 2
4 26 3
4 27 5
4 28 2
4 29 5
4 30 1
4 31 3
4 32 5
4 33 3
4 34 4
4 35 2
4 36 4
4 37 3
4 38 3
4 39 4
4 40 4
4 41 2
4 42 3
4 43 4
4 44 1
4 45 1
4 46 1
4 47 4
4 48 5
4 49 4
4 50 4
5 6 2
5 7 3
5 8 3
5 9 1
5 10 4
5 11 4
5 12 1
5 13 5
5 14 2
5 15 2
5 16 1
5 17 3
5 18 1
5 19 5
5 20 4
5 21 3
5 22 1
5 23 4
5 24 5
5 25 5
5 26 4
5 27 1
5 28 1
5 29 3
5 30 1
5 31 3
5 32 1
5 33 1
5 34 5
5 35 5
5 36 1
5 37 2
5 38 5
5 39 5
5 40 5
5 41 3
5 42 3
5 43 1
5 44 3
5 45 1
5 46 2
5 47 4
5 48 1
5 49 4
5 50 1
6 7 1
6 8 4
6 9 3
6 10 4
6 11 3
6 12 1
6 13 5
6 14 2
6 15 2
6 16 2
6 17 4
6 18 1
6 19 5
6 20 3
6 21 3
6 22 3
6 23 2
6 24 4
6 25 5
6 26 3
6 27 4
6 28 3
6 29 1
6 30 4
6 31 2
6 32 1
6 33 4
6 34 3
6 35 3
6 36 2
6 37 4
6 38 1
6 39 5
6 40 1
6 41 2
6 42 3
6 43 5
6 44 5
6 45 5
6 46 4
6 47 4
6 48 3
6 49 1
6 50 5
7 8 3
7 9 3
7 10 4
7 11 5
7 12 5
7 13 4
7 14 1
7 15 1
7 16 4
7 17 1
7 18 1
7 19 4
7 20 2
7 21 4
7 22 1
7 23 3
7 24 4
7 25 5
7 26 3
7 27 2
7 28 1
7 29 3
7 30 5
7 31 5
7 32 4
7 33 5
7 34 4
7 35 3
7 36 2
7 37 3
7 38 4
7 39 1
7 40 3
7 41 3
7 42 3
7 43 4
7 44 3
7 45 4
7 46 4
7 47 2
7 48 3
7 49 3
7 50 4
8 9 4
8 10 1
8 11 1
8 12 1
8 13 4
8 14 4
8 15 3
8 16 3
8 17 1
8 18 2
8 19 1
8 20 5
8 21 2
8 22 3
8 23 5
8 24 4
8 25 4
8 26 4
8 27 1
8 28 2
8 29 3
8 30 2
8 31 1
8 32 3
8 33 1
8 34 4
8 35 2
8 36 4
8 37 3
8 38 4
8 39 4
8 40 5
8 41 1
8 42 5
8 43 5
8 44 5
8 45 3
8 46 3
8 47 1
8 48 5
8 49 2
8 50 2
9 10 4
9 11 2
9 12 1
9 13 5
9 14 5
9 15 4
9 16 5
9 17 4
9 18 3
9 19 5
9 20 3
9 21 2
9 22 5
9 23 2
9 24 2
9 25 5
9 26 2
9 27 3
9 28 2
9 29 1
9 30 3
9 31 5
9 32 4
9 33 3
9 34 1
9 35 1
9 36 1
9 37 4
9 38 4
9 39 4
9 40 5
9 41 4
9 42 4
9 43 3
9 44 5
9 45 2
9 46 1
9 47 2
9 48 3
9 49 3
9 50 1
10 11 1
10 12 2
10 13 2
10 14 4
10 15 1
10 16 3
10 17 1
10 18 1
10 19 1
10 20 1
10 21 4
10 22 4
10 23 3
10 24 2
10 25 1
10 26 1
10 27 1
10 28 3
10 29 1
10 30 2
10 31 1
10 32 4
10 33 4
10 34 2
10 35 3
10 36 5
10 37 1
10 38 5
10 39 5
10 40 5
10 41 3
10 42 1
10 43 2
10 44 1
10 45 3
10 46 4
10 47 1
10 48 1
10 49 2
10 50 1
11 12 3
11 13 5
11 14 4
11 15 2
11 16 3
11 17 4
11 18 4
11 19 3
11 20 4
11 21 2
11 22 2
11 23 2
11 24 3
11 25 4
11 26 5
11 27 3
11 28 5
11 29 5
11 30 4
11 31 3
11 32 2
11 33 2
11 34 4
11 35 4
11 36 1
11 37 4
11 38 2
11 39 2
11 40 4
11 41 3
11 42 1
11 43 5
11 44 1
11 45 5
11 46 2
11 47 1
11 48 3
11 49 4
11 50 5
12 13 5
12 14 1
12 15 3
12 16 1
12 17 4
12 18 3
12 19 4
12 20 1
12 21 4
12 22 4
12 23 4
12 24 3
12 25 1
12 26 1
12 27 2
12 28 5
12 29 2
12 30 1
12 31 4
12 32 3
12 33 4
12 34 5
12 35 1
12 36 5
12 37 4
12 38 3
12 39 2
12 40 1
12 41 4
12 42 2
12 43 5
12 44 2
12 45 2
12 46 3
12 47 1
12 48 5
12 49 5
12 50 5
13 14 5
13 15 4
13 16 1
13 17 3
13 18 2
13 19 3
13 20 4
13 21 5
13 22 1
13 23 2
13 24 1
13 25 2
13 26 5
13 27 5
13 28 1
13 29 1
13 30 2
13 31 5
13 32 1
13 33 3
13 34 2
13 35 1
13 36 1
13 37 2
13 38 5
13 39 3
13 40 1
13 41 5
13 42 3
13 43 3
13 44 5
13 45 3
13 46 3
13 47 4
13 48 4
13 49 5
13 50 1
14 15 5
14 16 1
14 17 3
14 18 2
14 19 5
14 20 2
14 21 3
14 22 4
14 23 4
14 24 4
14 25 2
14 26 4
14 27 2
14 28 1
14 29 4
14 30 2
14 31 1
14 32 1
14 33 2
14 34 3
14 35 2
14 36 3
14 37 5
14 38 5
14 39 4
14 40 4
14 41 3
14 42 5
14 43 2
14 44 2
14 45 2
14 46 2
14 47 2
14 48 1
14 49 5
14 50 1
15 16 1
15 17 3
15 18 5
15 19 3
15 20 4
15 21 1
15 22 3
15 23 3
15 24 4
15 25 1
15 26 2
15 27 2
15 28 1
15 29 1
15 30 4
15 31 1
15 32 3
15 33 2
15 34 3
15 35 4
15 36 5
15 37 3
15 38 3
15 39 3
15 40 2
15 41 5
15 42 3
15 43 2
15 44 3
15 45 1
15 46 4
15 47 2
15 48 4
15 49 3
15 50 1
16 17 1
16 18 4
16 19 2
16 20 5
16 21 2
16 22 3
16 23 5
16 24 5
16 25 4
16 26 5
16 27 2
16 28 4
16 29 1
16 30 3
16 31 2
16 32 2
16 33 2
16 34 1
16 35 4
16 36 3
16 37 3
16 38 3
16 39 5
16 40 5
16 41 1
16 42 1
16 43 5
16 44 4
16 45 1
16 46 5
16 47 1
16 48 4
16 49 1
16 50 3
17 18 4
17 19 2
17 20 3
17 21 1
17 22 5
17 23 4
17 24 5
17 25 5
17 26 2
17 27 3
17 28 2
17 29 4
17 30 4
17 31 4
17 32 3
17 33 4
17 34 5
17 35 1
17 36 3
17 37 1
17 38 3
17 39 5
17 40 1
17 41 1
17 42 3
17 43 3
17 44 5
17 45 1
17 46 5
17 47 3
17 48 3
17 49 3
17 50 5
18 19 1
18 20 5
18 21 4
18 22 1
18 23 4
18 24 3
18 25 3
18 26 4
18 27 5
18 28 3
18 29 4
18 30 4
18 31 4
18 32 2
18 33 4
18 34 3
18 35 4
18 36 1
18 37 3
18 38 1
18 39 4
18 40 1
18 41 5
18 42 5
18 43 2
18 44 3
18 45 2
18 46 4
18 47 5
18 48 4
18 49 4
18 50 5
19 20 5
19 21 5
19 22 3
19 23 3
19 24 4
19 25 2
19 26 5
19 27 3
19 28 2
19 29 2
19 30 4
19 31 1
19 32 1
19 33 3
19 34 2
19 35 2
19 36 2
19 37 1
19 38 1
19 39 1
19 40 5
19 41 4
19 42 2
19 43 5
19 44 2
19 45 4
19 46 4
19 47 2
19 48 4
19 49 2
19 50 4
20 21 5
20 22 2
20 23 5
20 24 2
20 25 4
20 26 1
20 27 1
20 28 2
20 29 4
20 30 2
20 31 1
20 32 1
20 33 4
20 34 2
20 35 3
20 36 4
20 37 2
20 38 1
20 39 4
20 40 2
20 41 5
20 42 5
20 43 2
20 44 5
20 45 2
20 46 3
20 47 3
20 48 1
20 49 4
20 50 3
21 22 4
21 23 2
21 24 4
21 25 2
21 26 1
21 27 4
21 28 2
21 29 2
21 30 2
21 31 4
21 32 3
21 33 4
21 34 2
21 35 2
21 36 3
21 37 4
21 38 4
21 39 3
21 40 1
21 41 2
21 42 4
21 43 1
21 44 2
21 45 3
21 46 3
21 47 1
21 48 2
21 49 5
21 50 1
22 23 5
22 24 3
22 25 3
22 26 1
22 27 4
22 28 5
22 29 5
22 30 1
22 31 5
22 32 4
22 33 1
22 34 2
22 35 2
22 36 3
22 37 3
22 38 1
22 39 5
22 40 2
22 41 4
22 42 4
22 43 4
22 44 2
22 45 1
22 46 2
22 47 1
22 48 4
22 49 5
22 50 1
23 24 1
23 25 3
23 26 4
23 27 2
23 28 3
23 29 4
23 30 3
23 31 5
23 32 5
23 33 1
23 34 3
23 35 4
23 36 1
23 37 4
23 38 3
23 39 4
23 40 4
23 41 4
23 42 3
23 43 4
23 44 2
23 45 2
23 46 4
23 47 5
23 48 2
23 49 3
23 50 1
24 25 3
24 26 1
24 27 5
24 28 3
24 29 4
24 30 2
24 31 5
24 32 4
24 33 4
24 34 5
24 35 5
24 36 5
24 37 1
24 38 1
24 39 5
24 40 4
24 41 4
24 42 5
24 43 4
24 44 5
24 45 4
24 46 3
24 47 4
24 48 4
24 49 5
24 50 2
25 26 2
25 27 4
25 28 2
25 29 2
25 30 3
25 31 1
25 32 5
25 33 3
25 34 5
25 35 3
25 36 3
25 37 2
25 38 1
25 39 2
25 40 3
25 41 3
25 42 3
25 43 4
25 44 2
25 45 3
25 46 4
25 47 2
25 48 4
25 49 5
25 50 2
26 27 2
26 28 5
26 29 3
26 30 4
26 31 3
26 32 2
26 33 4
26 34 2
26 35 5
26 36 4
26 37 4
26 38 5
26 39 2
26 40 1
26 41 4
26 42 3
26 43 1
26 44 1
26 45 5
26 46 2
26 47 4
26 48 4
26 49 4
26 50 4
27 28 1
27 29 4
27 30 2
27 31 1
27 32 4
27 33 3
27 34 1
27 35 4
27 36 5
27 37 3
27 38 1
27 39 1
27 40 2
27 41 3
27 42 4
27 43 3
27 44 4
27 45 5
27 46 3
27 47 5
27 48 5
27 49 5
27 50 3
28 29 3
28 30 5
28 31 1
28 32 4
28 33 3
28 34 3
28 35 4
28 36 1
28 37 5
28 38 3
28 39 5
28 40 3
28 41 3
28 42 5
28 43 1
28 44 3
28 45 5
28 46 4
28 47 5
28 48 2
28 49 1
28 50 1
29 30 3
29 31 4
29 32 2
29 33 1
29 34 2
29 35 4
29 36 2
29 37 2
29 38 3
29 39 4
29 40 2
29 41 5
29 42 2
29 43 3
29 44 4
29 45 1
29 46 3
29 47 3
29 48 2
29 49 2
29 50 5
30 31 4
30 32 2
30 33 3
30 34 4
30 35 4
30 36 3
30 37 1
30 38 4
30 39 2
30 40 5
30 41 1
30 42 5
30 43 4
30 44 5
30 45 1
30 46 5
30 47 4
30 48 4
30 49 4
30 50 1
31 32 2
31 33 1
31 34 4
31 35 3
31 36 2
31 37 2
31 38 3
31 39 4
31 40 4
31 41 4
31 42 1
31 43 3
31 44 3
31 45 3
31 46 3
31 47 2
31 48 3
31 49 1
31 50 3
32 33 2
32 34 4
32 35 2
32 36 4
32 37 4
32 38 3
32 39 4
32 40 5
32 41 2
32 42 3
32 43 4
32 44 2
32 45 2
32 46 4
32 47 1
32 48 1
32 49 2
32 50 5
33 34 4
33 35 1
33 36 1
33 37 4
33 38 3
33 39 4
33 40 2
33 41 1
33 42 2
33 43 1
33 44 4
33 45 5
33 46 3
33 47 5
33 48 1
33 49 2
33 50 5
34 35 5
34 36 3
34 37 5
34 38 1
34 39 5
34 40 3
34 41 1
34 42 4
34 43 4
34 44 5
34 45 1
34 46 3
34 47 4
34 48 3
34 49 5
34 50 4
35 36 5
35 37 2
35 38 3
35 39 1
35 40 1
35 41 2
35 42 3
35 43 1
35 44 5
35 45 2
35 46 4
35 47 2
35 48 4
35 49 1
35 50 4
36 37 1
36 38 3
36 39 4
36 40 3
36 41 2
36 42 3
36 43 5
36 44 4
36 45 1
36 46 3
36 47 3
36 48 2
36 49 4
36 50 2
37 38 3
37 39 5
37 40 3
37 41 3
37 42 3
37 43 4
37 44 3
37 45 2
37 46 1
37 47 5
37 48 3
37 49 5
37 50 4
38 39 2
38 40 1
38 41 3
38 42 4
38 43 4
38 44 4
38 45 4
38 46 5
38 47 2
38 48 4
38 49 4
38 50 1
39 40 4
39 41 1
39 42 5
39 43 4
39 44 1
39 45 2
39 46 5
39 47 2
39 48 4
39 49 1
39 50 2
40 41 1
40 42 5
40 43 3
40 44 5
40 45 1
40 46 1
40 47 3
40 48 5
40 49 2
40 50 3
41 42 1
41 43 1
41 44 2
41 45 2
41 46 3
41 47 3
41 48 1
41 49 1
41 50 1
42 43 2
42 44 1
42 45 2
42 46 1
42 47 4
42 48 4
42 49 1
42 50 2
43 44 2
43 45 3
43 46 3
43 47 4
43 48 3
43 49 1
43 50 3
44 45 2
44 46 5
44 47 3
44 48 4
44 49 2
44 50 1
45 46 2
45 47 4
45 48 2
45 49 4
45 50 4
46 47 3
46 48 2
46 49 1
46 50 1
47 48 3
47 49 3
47 50 1
48 49 3
48 50 4
49 50 5
